p cnf 12 34
1 -2 -3 0
1 -2 3 0
-1 2 -3 0
-1 2 3 0
-4 -2 -3 0
-4 -2 3 0
4 2 -3 0
4 2 3 0
-5 -1 0
5 1 0
6 -5 -4 0
-6 -5 4 0
-6 5 -4 0
-6 5 4 0
-7 -8 -9 0
-7 -8 9 0
7 8 -9 0
7 8 9 0
-10 -8 -9 0
-10 -8 9 0
10 8 -9 0
10 8 9 0
11 -7 -10 0
-11 -7 10 0
-11 7 -10 0
-11 7 10 0
12 -11 -6 0
12 -11 6 0
12 11 -6 0
-12 11 6 0
12 0
1 0
2 0
3 0 